p cnf 28 68
a 27 5 0
e 1 2 3 4 6 7 8 9 10 11 12 13 14 15 16 17 18 19 20 21 22 23 24 25 26 28 0
3 1 0
3 -2 0
-1 2 -3 0
-4 5 0
4 5 0
6 -2 0
6 -5 0
2 5 -6 0
7 -3 0
7 -6 0
3 6 -7 0
-4 -1 -8 0
4 1 -8 0
-4 1 8 0
4 -1 8 0
-10 -9 0
-10 4 0
9 -4 10 0
-11 -8 0
-11 -10 0
8 10 11 0
-12 7 0
-12 -11 0
-7 11 12 0
4 9 -13 0
-4 -9 -13 0
4 -9 13 0
-4 9 13 0
-15 -13 0
-15 -14 0
13 14 15 0
17 -4 0
17 16 0
4 -16 -17 0
-18 -4 0
-18 1 0
4 -1 18 0
19 -17 0
19 -18 0
17 18 -19 0
-20 15 0
-20 -19 0
-15 19 20 0
-21 12 0
-21 20 0
-12 -20 21 0
-23 22 0
-23 -1 0
-22 1 23 0
-25 -4 0
-25 -1 0
4 1 25 0
-26 24 0
-26 25 0
-24 -25 26 0
27 23 0
27 26 0
-23 -26 -27 0
28 21 0
28 27 0
-21 -27 -28 0
21 -20 -4 5 3 22 0
9 -12 -18 -7 -15 -2 0
-21 20 27 -18 -5 0
15 -14 8 -16 27 0
15 1 8 -7 13 -18 -20 0
-13 19 -10 12 -18 -6 0
28 0
